c This is QMaxSAT 2018 (Constraints Journal Version)
c This is Glucose 3.0
c This is MiniSat 2.2.0
c WARNING: for repeatability, setting FPU to use double precision
c card = mrwto, comp = 0, pmodel = 0, incr = 1, verb = 0
cr nofBus: 20
cr newDemandSize: 1
cr acceptedSizeArray: 2 2 1 1 2 2 2 2 1 1 1 0 1 1 2 2 1 1 2 1
cr gridStartIndex: 1 21 41 53 65 85 105 125 145 157 169 181 187 199 211 231 251 263 275 295
cr deadlineArray: 0 46688 0 49675 0 52053 0 49675 0 0 49675 0 0 49675 0 22208 0 49675 0 26967 0 49675 0 43400 0 49675 0 21526 0 49675 38139 0 49675 0 0 49675 0 0 49675 0 49675 0 0 49675 0 0 49675 0 33827 0 49675 0 66512 0 49675 0 0 49675 0 0 49675 0 47058 0 49675 28737 0 49675
cr nofCarried: 0 0 0 0 0 0 0 0 1 0 0 0 0 1 0 0 0 1 0 0
cr pickDropArray: 1 -1 1 -1 1 -1 1 -1 0 1 -1 0 1 -1 1 -1 1 -1 1 -1 1 -1 1 -1 1 -1 1 -1 1 -1 -1 1 -1 0 1 -1 0 1 -1 1 -1 0 1 -1 -1 1 -1 1 -1 1 -1 -1 -1 1 -1 0 1 -1 -1 1 -1 1 -1 1 -1 0 1 -1
cr capacityArray: 4 4 4 4 4 4 4 4 4 4 4 4 4 4 4 4 4 4 4 4
cr dummyArray: 144 149 154 168 173 178 180 184 156 161 166 186 191 196 198 203 208 40 45 50 250 255 260 52 57 62 262 267 272 294 299 304 84 90 96 102 64 70 76 82 124 130 136 142 230 236 242 248 210 216 222 228 104 110 116 122 20 26 32 38 274 280 286 292 0 6 12 18
cr dummyOrder: 8 10 11 9 12 13 2 16 3 17 19 5 4 7 15 14 6 1 18 0
cr keepAuxVar: 700 701 702 703 704 705 706 707 708
c top = 110709
c |  Number of variables:    709                                              |
c |  Number of clauses:      13554                                            |
c |  Weight of hard clauses: 110709                                           |
c |  Number of soft clauses: 306                                              |
c |  Number of unit soft clauses: 0                                           |
c |  Maximum Cardinality (by unit): 110708       (0           )               |
c last restart ## conflicts  :  0 316 
o 1238 | cpuTime 0.007849 s
c Sum of weights = 110708
c A number of soft clauses remained = 306
c MRWTO encoding for Pseudo-Boolean Constraints
c sizeMax=1238
c No.0 Divisor=11	generated by pow1
c No.1 Divisor=11	generated by pow1
c No.2 Divisor=11	generated by pow1
c p0= 11	p1= 11	p2= 11	
c number of digits = 4
c linkingVar[0].size = 11, linkingVar[1].size = 11, linkingVar[2].size = 11, linkingVar[3].size = 1, 
c Pseudo-Boolean Constraints: 7092 variables and 63547 clauses
chain: [ | 1 7 | 21 27 | 41 | 53 | 65 71 | 85 91 | 105 111 | 125 131 | 145 150 155 | 157 | 169 | | 187 | 199 | 211 217 | 231 237 | 251 | 263 | 275 281 | 295 | ]
c k = 1238(0/10/2/6/) p2 = 11  p1 = 11  p0 = 11 
cr ans = 110708 | currentMinAns = 1238
c last restart ## conflicts  :  44 91 
o 1181 | cpuTime 0.03897 s
chain: [ | 1 7 | 21 27 | 41 | 53 | 65 71 | 85 91 | 105 116 113 122 | 125 131 | 145 | 157 | 169 | | 187 | 199 | 211 217 | 231 237 | 251 | 263 | 275 281 | 295 | ]
c k = 1181(0/9/8/4/) p2 = 11  p1 = 11  p0 = 11 
cr ans = 1238 | currentMinAns = 1181
Hard clauses = UNSAT
o 1181 | cpuTime 0.043296 s
chain: [ | 1 7 | 21 27 | 41 | 53 | 65 71 | 85 91 | 105 116 113 122 | 125 131 | 145 | 157 | 169 | | 187 | 199 | 211 217 | 231 237 | 251 | 263 | 275 281 | 295 | ]
cr ans = 1181 | currentMinAns = 1181
s OPTIMUM FOUND
final chain: [ | 1 7 | 21 27 | 41 | 53 | 65 71 | 85 91 | 105 116 113 122 | 125 131 | 145 | 157 | 169 | | 187 | 199 | 211 217 | 231 237 | 251 | 263 | 275 281 | 295 | ]
cumulat. delay time: [ | 405 1022 | 466 1150 | 4 | 6 | 193 518 | 92 475 | 362 465 1116 1181 | 357 674 | 418 | 12 | 5 | | 2 | 3 | 362 825 | 359 1215 | 5 | 7 | 541 1163 | 401 | ]
cumulat. carried no.: [ | 1 0 | 1 0 | 0 | 0 | 1 0 | 1 0 | 1 2 1 0 | 1 0 | 0 | 0 | 0 | | 0 | 0 | 1 0 | -1 -2 | 0 | 0 | 1 0 | 0 | ]
semantic route (bus 1): - > - > -
semantic route (bus 2): - > - > -
semantic route (bus 3): - > -
semantic route (bus 4): - > -
semantic route (bus 5): - > - > -
semantic route (bus 6): - > - > -
semantic route (bus 7): 1 > 2 > 4 > 3 > 5
semantic route (bus 8): - > - > -
semantic route (bus 9): - > -
semantic route (bus 10): - > -
semantic route (bus 11): - > -
semantic route (bus 12): 
semantic route (bus 13): - > -
semantic route (bus 14): - > -
semantic route (bus 15): - > - > -
semantic route (bus 16): - > - > -
semantic route (bus 17): - > -
semantic route (bus 18): - > -
semantic route (bus 19): - > - > -
semantic route (bus 20): - > -
c Latest Answer = 1181 by 3 loops
c restarts              : 4
c conflicts             : 267            (6154 /sec)
c decisions             : 2242           (0.00 % random) (51678 /sec)
c propagations          : 157394         (3627927 /sec)
c conflict literals     : 5187           (14.15 % deleted)
c Memory used           : 23.00 MB
c CPU time              : 0.043384 s
